;  time  = {'z3': 600}
;  terms = 71
;  score = 600
;  stdout= {'z3': 'timeout\n'}
(set-logic QF_FP)
(declare-const x0 (_ FloatingPoint 8 24))
(declare-const x1 (_ FloatingPoint 8 24))
(declare-const x2 (_ FloatingPoint 8 24))
(declare-const x3 (_ FloatingPoint 8 24))
(declare-const x4 (_ FloatingPoint 8 24))
(declare-const x5 (_ FloatingPoint 8 24))
(declare-const x6 (_ FloatingPoint 8 24))
(declare-const x7 (_ FloatingPoint 8 24))
(declare-const x8 (_ FloatingPoint 8 24))
(declare-const x9 (_ FloatingPoint 8 24))
(assert (not (fp.isNaN x0)))
(assert (not (fp.isInfinite x0)))
(assert (not (fp.isZero x0)))
(assert (not (fp.isNaN x1)))
(assert (not (fp.isInfinite x1)))
(assert (not (fp.isZero x1)))
(assert (not (fp.isNaN x2)))
(assert (not (fp.isInfinite x2)))
(assert (not (fp.isZero x2)))
(assert (not (fp.isNaN x3)))
(assert (not (fp.isInfinite x3)))
(assert (not (fp.isZero x3)))
(assert (not (fp.isNaN x4)))
(assert (not (fp.isInfinite x4)))
(assert (not (fp.isZero x4)))
(assert (not (fp.isNaN x5)))
(assert (not (fp.isInfinite x5)))
(assert (not (fp.isZero x5)))
(assert (not (fp.isNaN x6)))
(assert (not (fp.isInfinite x6)))
(assert (not (fp.isZero x6)))
(assert (not (fp.isNaN x7)))
(assert (not (fp.isInfinite x7)))
(assert (not (fp.isZero x7)))
(assert (not (fp.isNaN x8)))
(assert (not (fp.isInfinite x8)))
(assert (not (fp.isZero x8)))
(assert (not (fp.isNaN x9)))
(assert (not (fp.isInfinite x9)))
(assert (not (fp.isZero x9)))
(assert (fp.eq (fp.abs (fp.sqrt RNE (fp.mul RNE (fp.min (fp.max x6 x1) (fp.mul RNE x0 x3)) (fp.div RNE (fp.mul RNE x4 x6) (fp.max x1 x4))))) (fp.div RNE (fp.add RNE (fp.div RNE (fp.add RNE (fp.div RNE x6 x4) (fp.abs x8)) (fp.sub RNE (fp.roundToIntegral RNE x8) (fp.div RNE x4 x0))) (fp.sub RNE (fp.sub RNE (fp.add RNE x9 x1) (fp.mul RNE x3 x4)) (fp.mul RNE (fp.roundToIntegral RNE x9) (fp.add RNE x6 x5)))) (fp.max (fp.add RNE (fp.add RNE (fp.min x7 x4) (fp.mul RNE x8 x6)) (fp.min (fp.sub RNE x0 x6) (fp.mul RNE x5 x1))) (fp.mul RNE (fp.sqrt RNE (fp.sqrt RNE x1)) (fp.roundToIntegral RNE (fp.max x8 x0)))))))(check-sat)